Maximize
  - 1.780520000288 edge_0_1_0_0 - 2.2477598651344 edge_0_2_0_0
   - 0.3881826313092 edge_0_3_0_0 - 3.1012632098175 edge_0_4_0_0
   - 2.52437651514 edge_0_5_0_0 - 1.5888058334616 edge_0_8_0_0
   - 1.2009831826933 edge_0_9_0_0 - 2.5772407942365 edge_0_11_0_0
   - 3.3210068080677 edge_0_12_0_0 - 2.5241445035364 edge_0_13_0_0
   - 1.664040548588 edge_0_15_0_0 - 6.5443496517932 edge_0_16_0_0
   - 2.256397109274 edge_0_19_0_0 - 3.4038215640499 edge_0_20_0_0
   - 0.1351832958869518 edge_1_2_0_0 - 0.2281098149295166 edge_1_3_0_0
   - 0.7080852908018844 edge_1_4_0_0 - 0.3981417313197192 edge_1_5_0_0
   + 0.00397927936845345 edge_1_8_0_0 - 0.3296507558207252 edge_1_9_0_0
   - 0.3409694269209495 edge_1_11_0_0 - 0.4974182315170652 edge_1_14_0_0
   - 0.3427884589743737 edge_1_20_0_0 + 0.1163906540663903 edge_2_1_0_0
   + 0.5403826888126667 edge_2_3_0_0 - 0.1048636614839299 edge_2_4_0_0
   + 0.3387402840215817 edge_2_5_0_0 - 0.6608330158954937 edge_2_6_0_0
   + 0.0276136454900586 edge_2_7_0_0 - 1.000377718721535 edge_2_9_0_0
   - 0.4523081308411408 edge_2_11_0_0 - 1.435344316453772 edge_2_16_0_0
   + 0.3499431906902173 edge_2_20_0_0 + 1.190680520758937 edge_3_1_0_0
   + 2.319796479661321 edge_3_2_0_0 + 1.74304432346055 edge_3_4_0_0
   + 2.225921336943053 edge_3_5_0_0 + 1.784810562219021 edge_3_6_0_0
   + 1.831938679964107 edge_3_7_0_0 + 0.8142741836332548 edge_3_9_0_0
   - 0.4636241351627824 edge_3_10_0_0 + 0.1667774061047535 edge_3_11_0_0
   - 1.122680058103085 edge_3_12_0_0 + 0.2430254489226898 edge_3_13_0_0
   - 1.355859358294201 edge_3_14_0_0 + 0.9541982119490058 edge_3_16_0_0
   - 1.637451641418146 edge_3_19_0_0 + 2.907593036942578 edge_3_20_0_0
   + 0.1223093054518641 edge_4_1_0_0 + 0.1590851552746401 edge_4_2_0_0
   + 0.1036840988477319 edge_4_3_0_0 + 0.9983878625234804 edge_4_5_0_0
   + 0.5304293854525708 edge_4_20_0_0 - 0.1039126033308442 edge_5_1_0_0
   + 0.2549492156370461 edge_5_2_0_0 + 0.6846059808114281 edge_5_3_0_0
   + 0.9945812515123552 edge_5_4_0_0 + 0.4009677748596199 edge_5_6_0_0
   + 0.1833122887856724 edge_5_7_0_0 - 0.2043627422777758 edge_5_9_0_0
   - 0.0958167592549209 edge_5_11_0_0 - 2.376267054213988 edge_5_12_0_0
   - 1.154920664135536 edge_5_13_0_0 - 2.702966450061878 edge_5_14_0_0
   - 1.115430038386583 edge_5_15_0_0 - 0.6883395738593469 edge_5_16_0_0
   + 1.239520442128931 edge_5_20_0_0 - 1.181270594978841 edge_6_3_0_0
   - 0.6254701156798567 edge_6_5_0_0 - 0.0818729994007145 edge_6_7_0_0
   - 0.844469602008583 edge_7_5_0_0 - 0.1509399320248999 edge_7_6_0_0
   - 0.2931321131839105 edge_7_9_0_0 - 1.018511680759291 edge_7_11_0_0
   + 0.1555843941846002 edge_8_1_0_0 + 0.5621281840692151 edge_8_9_0_0
   + 0.1438141310292453 edge_8_11_0_0 - 0.3492390575122488 edge_8_12_0_0
   - 0.3278780915583799 edge_8_13_0_0 - 0.2983905767858753 edge_8_14_0_0
   - 0.1472577978958985 edge_8_15_0_0 - 0.1630795600712017 edge_8_19_0_0
   + 0.4979879563536027 edge_8_20_0_0 + 0.1185328684558627 edge_9_1_0_0
   + 0.6492099892598959 edge_9_2_0_0 + 0.5484455305715558 edge_9_3_0_0
   + 0.8174463059389533 edge_9_5_0_0 + 0.5115707751720733 edge_9_6_0_0
   + 0.6746910819340377 edge_9_7_0_0 + 0.8116682507758072 edge_9_8_0_0
   + 1.382759279343791 edge_9_10_0_0 + 1.839625846876977 edge_9_11_0_0
   + 0.8074828691497263 edge_9_12_0_0 + 2.580006483951597 edge_9_13_0_0
   + 0.7778033067063719 edge_9_14_0_0 + 0.5745177982929348 edge_9_15_0_0
   + 1.439002959898929 edge_9_16_0_0 + 0.9393481162203726 edge_9_19_0_0
   + 2.861023775296109 edge_9_20_0_0 - 1.205777028965937 edge_10_7_0_0
   + 0.2674609517311587 edge_10_9_0_0 - 0.0141641127364072 edge_11_1_0_0
   - 0.2829589930443507 edge_11_2_0_0 - 0.178580084156683 edge_11_3_0_0
   + 0.0967993311474444 edge_11_5_0_0 + 0.1965845120710033 edge_11_6_0_0
   + 0.1051513057552843 edge_11_7_0_0 + 0.5901399712527968 edge_11_8_0_0
   + 1.824768611545627 edge_11_9_0_0 + 3.753114555464141 edge_11_10_0_0
   + 0.2899164969834089 edge_11_12_0_0 + 0.5889007593070772 edge_11_13_0_0
   - 0.379377964429991 edge_11_14_0_0 - 0.6116277813866394 edge_11_15_0_0
   + 1.318837854165844 edge_11_16_0_0 - 0.7724095227539347 edge_11_19_0_0
   + 0.6389403188908602 edge_11_20_0_0 - 0.7085086580782631 edge_12_8_0_0
   - 0.3990684944192681 edge_12_9_0_0 - 0.9297638502363824 edge_12_11_0_0
   + 1.276956404088699 edge_12_13_0_0 + 0.5271705573248833 edge_12_14_0_0
   + 0.2986658284955555 edge_12_15_0_0 - 0.206081703757058 edge_12_16_0_0
   - 0.540967989407439 edge_12_19_0_0 - 0.4886770948047606 edge_12_20_0_0
   - 0.1307334467588849 edge_13_1_0_0 - 0.7922380763084843 edge_13_2_0_0
   - 0.7142403720491066 edge_13_3_0_0 - 0.1660658860286286 edge_13_5_0_0
   - 0.8676700139922305 edge_13_6_0_0 - 0.7551207647834922 edge_13_7_0_0
   - 0.1194212868459678 edge_13_8_0_0 + 0.1802984770250328 edge_13_9_0_0
   + 0.2345772046640987 edge_13_10_0_0 + 0.1936145034679279 edge_13_11_0_0
   + 3.233090200152076 edge_13_12_0_0 + 0.6999629564476771 edge_13_14_0_0
   + 0.2312589762413514 edge_13_15_0_0 + 0.471556101640302 edge_13_16_0_0
   - 0.3425758370576674 edge_13_18_0_0 + 0.2032073489920402 edge_13_19_0_0
   + 0.8287516164434497 edge_13_20_0_0 - 0.7877960479648699 edge_14_1_0_0
   - 0.6632198843298931 edge_14_8_0_0 - 0.7371841122731646 edge_14_9_0_0
   - 0.8782862143803106 edge_14_11_0_0 + 0.4009856383416796 edge_14_12_0_0
   + 0.0828758122420688 edge_14_13_0_0 + 1.012056796457299 edge_14_15_0_0
   + 1.043035290665311 edge_14_16_0_0 - 0.5115063799016624 edge_14_19_0_0
   - 0.7730498510202091 edge_14_20_0_0 - 0.2601691988372735 edge_15_1_0_0
   - 0.2870986861618973 edge_15_8_0_0 - 0.2005161030488078 edge_15_9_0_0
   - 0.1743210865362462 edge_15_11_0_0 + 0.2795372320999834 edge_15_12_0_0
   + 0.1235836861857082 edge_15_13_0_0 + 0.8724113577994297 edge_15_14_0_0
   + 0.8321641315892955 edge_15_19_0_0 + 0.5472510058060124 edge_15_20_0_0
   - 0.9709463611602328 edge_16_2_0_0 - 1.057308881071829 edge_16_3_0_0
   - 0.8306695878464531 edge_16_5_0_0 - 0.2841175152992197 edge_16_6_0_0
   - 0.8492510637070282 edge_16_7_0_0 - 0.2268814889632976 edge_16_9_0_0
   - 1.030371841817897 edge_16_11_0_0 + 0.7198348079198535 edge_16_12_0_0
   + 0.4174100030930163 edge_16_13_0_0 + 2.094748537457084 edge_16_14_0_0
   + 2.759838106140792 edge_16_15_0_0 + 0.5217809270554568 edge_16_18_0_0
   + 2.975578715223667 edge_16_19_0_0 - 0.2055087879898655 edge_18_14_0_0
   + 0.213347714063968 edge_18_15_0_0 - 0.3567454686762763 edge_19_1_0_0
   - 1.055137039632966 edge_19_2_0_0 - 1.334236490551802 edge_19_3_0_0
   - 1.577256253669542 edge_19_6_0_0 - 0.4914264303367078 edge_19_8_0_0
   - 0.2626397563596281 edge_19_9_0_0 - 0.3556281810702284 edge_19_11_0_0
   + 0.1542915827170774 edge_19_12_0_0 + 0.2177081257309732 edge_19_13_0_0
   + 1.279340891732277 edge_19_14_0_0 + 1.574828340052516 edge_19_15_0_0
   + 1.195424368664296 edge_19_16_0_0 + 3.448662957998673 edge_19_18_0_0
   + 0.1177625551309857 edge_19_20_0_0 - 1.943352867223378 edge_20_1_0_0
   - 1.982256103238827 edge_20_2_0_0 - 0.894936780413119 edge_20_4_0_0
   - 1.627831055358986 edge_20_5_0_0 - 0.8012494798136082 edge_20_19_0_0
Subject To
 one_parent_1: edge_0_1_0_0 + edge_2_1_0_0 + edge_3_1_0_0 + edge_4_1_0_0
   + edge_5_1_0_0 + edge_8_1_0_0 + edge_9_1_0_0 + edge_11_1_0_0
   + edge_13_1_0_0 + edge_14_1_0_0 + edge_15_1_0_0 + edge_19_1_0_0
   + edge_20_1_0_0 = 1
 consume_one_flow_unit_1: flow_0_1_0_0 - flow_1_2_0_0 - flow_1_3_0_0
   - flow_1_4_0_0 - flow_1_5_0_0 - flow_1_8_0_0 - flow_1_9_0_0
   - flow_1_11_0_0 - flow_1_14_0_0 - flow_1_20_0_0 + flow_2_1_0_0
   + flow_3_1_0_0 + flow_4_1_0_0 + flow_5_1_0_0 + flow_8_1_0_0
   + flow_9_1_0_0 + flow_11_1_0_0 + flow_13_1_0_0 + flow_14_1_0_0
   + flow_15_1_0_0 + flow_19_1_0_0 + flow_20_1_0_0 = 1
 one_parent_2: edge_0_2_0_0 + edge_1_2_0_0 + edge_3_2_0_0 + edge_4_2_0_0
   + edge_5_2_0_0 + edge_9_2_0_0 + edge_11_2_0_0 + edge_13_2_0_0
   + edge_16_2_0_0 + edge_19_2_0_0 + edge_20_2_0_0 = 1
 consume_one_flow_unit_2: flow_0_2_0_0 + flow_1_2_0_0 - flow_2_1_0_0
   - flow_2_3_0_0 - flow_2_4_0_0 - flow_2_5_0_0 - flow_2_6_0_0
   - flow_2_7_0_0 - flow_2_9_0_0 - flow_2_11_0_0 - flow_2_16_0_0
   - flow_2_20_0_0 + flow_3_2_0_0 + flow_4_2_0_0 + flow_5_2_0_0
   + flow_9_2_0_0 + flow_11_2_0_0 + flow_13_2_0_0 + flow_16_2_0_0
   + flow_19_2_0_0 + flow_20_2_0_0 = 1
 one_parent_3: edge_0_3_0_0 + edge_1_3_0_0 + edge_2_3_0_0 + edge_4_3_0_0
   + edge_5_3_0_0 + edge_6_3_0_0 + edge_9_3_0_0 + edge_11_3_0_0
   + edge_13_3_0_0 + edge_16_3_0_0 + edge_19_3_0_0 = 1
 consume_one_flow_unit_3: flow_0_3_0_0 + flow_1_3_0_0 + flow_2_3_0_0
   - flow_3_1_0_0 - flow_3_2_0_0 - flow_3_4_0_0 - flow_3_5_0_0
   - flow_3_6_0_0 - flow_3_7_0_0 - flow_3_9_0_0 - flow_3_10_0_0
   - flow_3_11_0_0 - flow_3_12_0_0 - flow_3_13_0_0 - flow_3_14_0_0
   - flow_3_16_0_0 - flow_3_19_0_0 - flow_3_20_0_0 + flow_4_3_0_0
   + flow_5_3_0_0 + flow_6_3_0_0 + flow_9_3_0_0 + flow_11_3_0_0
   + flow_13_3_0_0 + flow_16_3_0_0 + flow_19_3_0_0 = 1
 one_parent_4: edge_0_4_0_0 + edge_1_4_0_0 + edge_2_4_0_0 + edge_3_4_0_0
   + edge_5_4_0_0 + edge_20_4_0_0 = 1
 consume_one_flow_unit_4: flow_0_4_0_0 + flow_1_4_0_0 + flow_2_4_0_0
   + flow_3_4_0_0 - flow_4_1_0_0 - flow_4_2_0_0 - flow_4_3_0_0
   - flow_4_5_0_0 - flow_4_20_0_0 + flow_5_4_0_0 + flow_20_4_0_0 = 1
 one_parent_5: edge_0_5_0_0 + edge_1_5_0_0 + edge_2_5_0_0 + edge_3_5_0_0
   + edge_4_5_0_0 + edge_6_5_0_0 + edge_7_5_0_0 + edge_9_5_0_0
   + edge_11_5_0_0 + edge_13_5_0_0 + edge_16_5_0_0 + edge_20_5_0_0 = 1
 consume_one_flow_unit_5: flow_0_5_0_0 + flow_1_5_0_0 + flow_2_5_0_0
   + flow_3_5_0_0 + flow_4_5_0_0 - flow_5_1_0_0 - flow_5_2_0_0
   - flow_5_3_0_0 - flow_5_4_0_0 - flow_5_6_0_0 - flow_5_7_0_0
   - flow_5_9_0_0 - flow_5_11_0_0 - flow_5_12_0_0 - flow_5_13_0_0
   - flow_5_14_0_0 - flow_5_15_0_0 - flow_5_16_0_0 - flow_5_20_0_0
   + flow_6_5_0_0 + flow_7_5_0_0 + flow_9_5_0_0 + flow_11_5_0_0
   + flow_13_5_0_0 + flow_16_5_0_0 + flow_20_5_0_0 = 1
 one_parent_6: edge_2_6_0_0 + edge_3_6_0_0 + edge_5_6_0_0 + edge_7_6_0_0
   + edge_9_6_0_0 + edge_11_6_0_0 + edge_13_6_0_0 + edge_16_6_0_0
   + edge_19_6_0_0 = 1
 consume_one_flow_unit_6: flow_2_6_0_0 + flow_3_6_0_0 + flow_5_6_0_0
   - flow_6_3_0_0 - flow_6_5_0_0 - flow_6_7_0_0 + flow_7_6_0_0
   + flow_9_6_0_0 + flow_11_6_0_0 + flow_13_6_0_0 + flow_16_6_0_0
   + flow_19_6_0_0 = 1
 one_parent_7: edge_2_7_0_0 + edge_3_7_0_0 + edge_5_7_0_0 + edge_6_7_0_0
   + edge_9_7_0_0 + edge_10_7_0_0 + edge_11_7_0_0 + edge_13_7_0_0
   + edge_16_7_0_0 = 1
 consume_one_flow_unit_7: flow_2_7_0_0 + flow_3_7_0_0 + flow_5_7_0_0
   + flow_6_7_0_0 - flow_7_5_0_0 - flow_7_6_0_0 - flow_7_9_0_0
   - flow_7_11_0_0 + flow_9_7_0_0 + flow_10_7_0_0 + flow_11_7_0_0
   + flow_13_7_0_0 + flow_16_7_0_0 = 1
 one_parent_8: edge_0_8_0_0 + edge_1_8_0_0 + edge_9_8_0_0 + edge_11_8_0_0
   + edge_12_8_0_0 + edge_13_8_0_0 + edge_14_8_0_0 + edge_15_8_0_0
   + edge_19_8_0_0 = 1
 consume_one_flow_unit_8: flow_0_8_0_0 + flow_1_8_0_0 - flow_8_1_0_0
   - flow_8_9_0_0 - flow_8_11_0_0 - flow_8_12_0_0 - flow_8_13_0_0
   - flow_8_14_0_0 - flow_8_15_0_0 - flow_8_19_0_0 - flow_8_20_0_0
   + flow_9_8_0_0 + flow_11_8_0_0 + flow_12_8_0_0 + flow_13_8_0_0
   + flow_14_8_0_0 + flow_15_8_0_0 + flow_19_8_0_0 = 1
 one_parent_9: edge_0_9_0_0 + edge_1_9_0_0 + edge_2_9_0_0 + edge_3_9_0_0
   + edge_5_9_0_0 + edge_7_9_0_0 + edge_8_9_0_0 + edge_10_9_0_0
   + edge_11_9_0_0 + edge_12_9_0_0 + edge_13_9_0_0 + edge_14_9_0_0
   + edge_15_9_0_0 + edge_16_9_0_0 + edge_19_9_0_0 = 1
 consume_one_flow_unit_9: flow_0_9_0_0 + flow_1_9_0_0 + flow_2_9_0_0
   + flow_3_9_0_0 + flow_5_9_0_0 + flow_7_9_0_0 + flow_8_9_0_0
   - flow_9_1_0_0 - flow_9_2_0_0 - flow_9_3_0_0 - flow_9_5_0_0
   - flow_9_6_0_0 - flow_9_7_0_0 - flow_9_8_0_0 - flow_9_10_0_0
   - flow_9_11_0_0 - flow_9_12_0_0 - flow_9_13_0_0 - flow_9_14_0_0
   - flow_9_15_0_0 - flow_9_16_0_0 - flow_9_19_0_0 - flow_9_20_0_0
   + flow_10_9_0_0 + flow_11_9_0_0 + flow_12_9_0_0 + flow_13_9_0_0
   + flow_14_9_0_0 + flow_15_9_0_0 + flow_16_9_0_0 + flow_19_9_0_0 = 1
 one_parent_10: edge_3_10_0_0 + edge_9_10_0_0 + edge_11_10_0_0
   + edge_13_10_0_0 = 1
 consume_one_flow_unit_10: flow_3_10_0_0 + flow_9_10_0_0 - flow_10_7_0_0
   - flow_10_9_0_0 + flow_11_10_0_0 + flow_13_10_0_0 = 1
 one_parent_11: edge_0_11_0_0 + edge_1_11_0_0 + edge_2_11_0_0
   + edge_3_11_0_0 + edge_5_11_0_0 + edge_7_11_0_0 + edge_8_11_0_0
   + edge_9_11_0_0 + edge_12_11_0_0 + edge_13_11_0_0 + edge_14_11_0_0
   + edge_15_11_0_0 + edge_16_11_0_0 + edge_19_11_0_0 = 1
 consume_one_flow_unit_11: flow_0_11_0_0 + flow_1_11_0_0 + flow_2_11_0_0
   + flow_3_11_0_0 + flow_5_11_0_0 + flow_7_11_0_0 + flow_8_11_0_0
   + flow_9_11_0_0 - flow_11_1_0_0 - flow_11_2_0_0 - flow_11_3_0_0
   - flow_11_5_0_0 - flow_11_6_0_0 - flow_11_7_0_0 - flow_11_8_0_0
   - flow_11_9_0_0 - flow_11_10_0_0 - flow_11_12_0_0 - flow_11_13_0_0
   - flow_11_14_0_0 - flow_11_15_0_0 - flow_11_16_0_0 - flow_11_19_0_0
   - flow_11_20_0_0 + flow_12_11_0_0 + flow_13_11_0_0 + flow_14_11_0_0
   + flow_15_11_0_0 + flow_16_11_0_0 + flow_19_11_0_0 = 1
 one_parent_12: edge_0_12_0_0 + edge_3_12_0_0 + edge_5_12_0_0
   + edge_8_12_0_0 + edge_9_12_0_0 + edge_11_12_0_0 + edge_13_12_0_0
   + edge_14_12_0_0 + edge_15_12_0_0 + edge_16_12_0_0 + edge_19_12_0_0 = 1
 consume_one_flow_unit_12: flow_0_12_0_0 + flow_3_12_0_0 + flow_5_12_0_0
   + flow_8_12_0_0 + flow_9_12_0_0 + flow_11_12_0_0 - flow_12_8_0_0
   - flow_12_9_0_0 - flow_12_11_0_0 - flow_12_13_0_0 - flow_12_14_0_0
   - flow_12_15_0_0 - flow_12_16_0_0 - flow_12_19_0_0 - flow_12_20_0_0
   + flow_13_12_0_0 + flow_14_12_0_0 + flow_15_12_0_0 + flow_16_12_0_0
   + flow_19_12_0_0 = 1
 one_parent_13: edge_0_13_0_0 + edge_3_13_0_0 + edge_5_13_0_0
   + edge_8_13_0_0 + edge_9_13_0_0 + edge_11_13_0_0 + edge_12_13_0_0
   + edge_14_13_0_0 + edge_15_13_0_0 + edge_16_13_0_0 + edge_19_13_0_0 = 1
 consume_one_flow_unit_13: flow_0_13_0_0 + flow_3_13_0_0 + flow_5_13_0_0
   + flow_8_13_0_0 + flow_9_13_0_0 + flow_11_13_0_0 + flow_12_13_0_0
   - flow_13_1_0_0 - flow_13_2_0_0 - flow_13_3_0_0 - flow_13_5_0_0
   - flow_13_6_0_0 - flow_13_7_0_0 - flow_13_8_0_0 - flow_13_9_0_0
   - flow_13_10_0_0 - flow_13_11_0_0 - flow_13_12_0_0 - flow_13_14_0_0
   - flow_13_15_0_0 - flow_13_16_0_0 - flow_13_18_0_0 - flow_13_19_0_0
   - flow_13_20_0_0 + flow_14_13_0_0 + flow_15_13_0_0 + flow_16_13_0_0
   + flow_19_13_0_0 = 1
 one_parent_14: edge_1_14_0_0 + edge_3_14_0_0 + edge_5_14_0_0
   + edge_8_14_0_0 + edge_9_14_0_0 + edge_11_14_0_0 + edge_12_14_0_0
   + edge_13_14_0_0 + edge_15_14_0_0 + edge_16_14_0_0 + edge_18_14_0_0
   + edge_19_14_0_0 = 1
 consume_one_flow_unit_14: flow_1_14_0_0 + flow_3_14_0_0 + flow_5_14_0_0
   + flow_8_14_0_0 + flow_9_14_0_0 + flow_11_14_0_0 + flow_12_14_0_0
   + flow_13_14_0_0 - flow_14_1_0_0 - flow_14_8_0_0 - flow_14_9_0_0
   - flow_14_11_0_0 - flow_14_12_0_0 - flow_14_13_0_0 - flow_14_15_0_0
   - flow_14_16_0_0 - flow_14_19_0_0 - flow_14_20_0_0 + flow_15_14_0_0
   + flow_16_14_0_0 + flow_18_14_0_0 + flow_19_14_0_0 = 1
 one_parent_15: edge_0_15_0_0 + edge_5_15_0_0 + edge_8_15_0_0
   + edge_9_15_0_0 + edge_11_15_0_0 + edge_12_15_0_0 + edge_13_15_0_0
   + edge_14_15_0_0 + edge_16_15_0_0 + edge_18_15_0_0 + edge_19_15_0_0 = 1
 consume_one_flow_unit_15: flow_0_15_0_0 + flow_5_15_0_0 + flow_8_15_0_0
   + flow_9_15_0_0 + flow_11_15_0_0 + flow_12_15_0_0 + flow_13_15_0_0
   + flow_14_15_0_0 - flow_15_1_0_0 - flow_15_8_0_0 - flow_15_9_0_0
   - flow_15_11_0_0 - flow_15_12_0_0 - flow_15_13_0_0 - flow_15_14_0_0
   - flow_15_19_0_0 - flow_15_20_0_0 + flow_16_15_0_0 + flow_18_15_0_0
   + flow_19_15_0_0 = 1
 one_parent_16: edge_0_16_0_0 + edge_2_16_0_0 + edge_3_16_0_0
   + edge_5_16_0_0 + edge_9_16_0_0 + edge_11_16_0_0 + edge_12_16_0_0
   + edge_13_16_0_0 + edge_14_16_0_0 + edge_19_16_0_0 = 1
 consume_one_flow_unit_16: flow_0_16_0_0 + flow_2_16_0_0 + flow_3_16_0_0
   + flow_5_16_0_0 + flow_9_16_0_0 + flow_11_16_0_0 + flow_12_16_0_0
   + flow_13_16_0_0 + flow_14_16_0_0 - flow_16_2_0_0 - flow_16_3_0_0
   - flow_16_5_0_0 - flow_16_6_0_0 - flow_16_7_0_0 - flow_16_9_0_0
   - flow_16_11_0_0 - flow_16_12_0_0 - flow_16_13_0_0 - flow_16_14_0_0
   - flow_16_15_0_0 - flow_16_18_0_0 - flow_16_19_0_0 + flow_19_16_0_0 = 1
 one_parent_17: = 1
 consume_one_flow_unit_17: = 1
 one_parent_18: edge_13_18_0_0 + edge_16_18_0_0 + edge_19_18_0_0 = 1
 consume_one_flow_unit_18: flow_13_18_0_0 + flow_16_18_0_0 - flow_18_14_0_0
   - flow_18_15_0_0 + flow_19_18_0_0 = 1
 one_parent_19: edge_0_19_0_0 + edge_3_19_0_0 + edge_8_19_0_0
   + edge_9_19_0_0 + edge_11_19_0_0 + edge_12_19_0_0 + edge_13_19_0_0
   + edge_14_19_0_0 + edge_15_19_0_0 + edge_16_19_0_0 + edge_20_19_0_0 = 1
 consume_one_flow_unit_19: flow_0_19_0_0 + flow_3_19_0_0 + flow_8_19_0_0
   + flow_9_19_0_0 + flow_11_19_0_0 + flow_12_19_0_0 + flow_13_19_0_0
   + flow_14_19_0_0 + flow_15_19_0_0 + flow_16_19_0_0 - flow_19_1_0_0
   - flow_19_2_0_0 - flow_19_3_0_0 - flow_19_6_0_0 - flow_19_8_0_0
   - flow_19_9_0_0 - flow_19_11_0_0 - flow_19_12_0_0 - flow_19_13_0_0
   - flow_19_14_0_0 - flow_19_15_0_0 - flow_19_16_0_0 - flow_19_18_0_0
   - flow_19_20_0_0 + flow_20_19_0_0 = 1
 one_parent_20: edge_0_20_0_0 + edge_1_20_0_0 + edge_2_20_0_0
   + edge_3_20_0_0 + edge_4_20_0_0 + edge_5_20_0_0 + edge_8_20_0_0
   + edge_9_20_0_0 + edge_11_20_0_0 + edge_12_20_0_0 + edge_13_20_0_0
   + edge_14_20_0_0 + edge_15_20_0_0 + edge_19_20_0_0 = 1
 consume_one_flow_unit_20: flow_0_20_0_0 + flow_1_20_0_0 + flow_2_20_0_0
   + flow_3_20_0_0 + flow_4_20_0_0 + flow_5_20_0_0 + flow_8_20_0_0
   + flow_9_20_0_0 + flow_11_20_0_0 + flow_12_20_0_0 + flow_13_20_0_0
   + flow_14_20_0_0 + flow_15_20_0_0 + flow_19_20_0_0 - flow_20_1_0_0
   - flow_20_2_0_0 - flow_20_4_0_0 - flow_20_5_0_0 - flow_20_19_0_0 = 1
 root_flow: flow_0_1_0_0 + flow_0_2_0_0 + flow_0_3_0_0 + flow_0_4_0_0
   + flow_0_5_0_0 + flow_0_8_0_0 + flow_0_9_0_0 + flow_0_11_0_0
   + flow_0_12_0_0 + flow_0_13_0_0 + flow_0_15_0_0 + flow_0_16_0_0
   + flow_0_19_0_0 + flow_0_20_0_0 = 20
 inactive_no_flow_0_1_0_0: flow_0_1_0_0 - 1000 edge_0_1_0_0 <= 0
 inactive_no_flow_0_2_0_0: flow_0_2_0_0 - 1000 edge_0_2_0_0 <= 0
 inactive_no_flow_0_3_0_0: flow_0_3_0_0 - 1000 edge_0_3_0_0 <= 0
 inactive_no_flow_0_4_0_0: flow_0_4_0_0 - 1000 edge_0_4_0_0 <= 0
 inactive_no_flow_0_5_0_0: flow_0_5_0_0 - 1000 edge_0_5_0_0 <= 0
 inactive_no_flow_0_8_0_0: flow_0_8_0_0 - 1000 edge_0_8_0_0 <= 0
 inactive_no_flow_0_9_0_0: flow_0_9_0_0 - 1000 edge_0_9_0_0 <= 0
 inactive_no_flow_0_11_0_0: flow_0_11_0_0 - 1000 edge_0_11_0_0 <= 0
 inactive_no_flow_0_12_0_0: flow_0_12_0_0 - 1000 edge_0_12_0_0 <= 0
 inactive_no_flow_0_13_0_0: flow_0_13_0_0 - 1000 edge_0_13_0_0 <= 0
 inactive_no_flow_0_15_0_0: flow_0_15_0_0 - 1000 edge_0_15_0_0 <= 0
 inactive_no_flow_0_16_0_0: flow_0_16_0_0 - 1000 edge_0_16_0_0 <= 0
 inactive_no_flow_0_19_0_0: flow_0_19_0_0 - 1000 edge_0_19_0_0 <= 0
 inactive_no_flow_0_20_0_0: flow_0_20_0_0 - 1000 edge_0_20_0_0 <= 0
 inactive_no_flow_1_2_0_0: flow_1_2_0_0 - 1000 edge_1_2_0_0 <= 0
 inactive_no_flow_1_3_0_0: flow_1_3_0_0 - 1000 edge_1_3_0_0 <= 0
 inactive_no_flow_1_4_0_0: flow_1_4_0_0 - 1000 edge_1_4_0_0 <= 0
 inactive_no_flow_1_5_0_0: flow_1_5_0_0 - 1000 edge_1_5_0_0 <= 0
 inactive_no_flow_1_8_0_0: flow_1_8_0_0 - 1000 edge_1_8_0_0 <= 0
 inactive_no_flow_1_9_0_0: flow_1_9_0_0 - 1000 edge_1_9_0_0 <= 0
 inactive_no_flow_1_11_0_0: flow_1_11_0_0 - 1000 edge_1_11_0_0 <= 0
 inactive_no_flow_1_14_0_0: flow_1_14_0_0 - 1000 edge_1_14_0_0 <= 0
 inactive_no_flow_1_20_0_0: flow_1_20_0_0 - 1000 edge_1_20_0_0 <= 0
 inactive_no_flow_2_1_0_0: flow_2_1_0_0 - 1000 edge_2_1_0_0 <= 0
 inactive_no_flow_2_3_0_0: flow_2_3_0_0 - 1000 edge_2_3_0_0 <= 0
 inactive_no_flow_2_4_0_0: flow_2_4_0_0 - 1000 edge_2_4_0_0 <= 0
 inactive_no_flow_2_5_0_0: flow_2_5_0_0 - 1000 edge_2_5_0_0 <= 0
 inactive_no_flow_2_6_0_0: flow_2_6_0_0 - 1000 edge_2_6_0_0 <= 0
 inactive_no_flow_2_7_0_0: flow_2_7_0_0 - 1000 edge_2_7_0_0 <= 0
 inactive_no_flow_2_9_0_0: flow_2_9_0_0 - 1000 edge_2_9_0_0 <= 0
 inactive_no_flow_2_11_0_0: flow_2_11_0_0 - 1000 edge_2_11_0_0 <= 0
 inactive_no_flow_2_16_0_0: flow_2_16_0_0 - 1000 edge_2_16_0_0 <= 0
 inactive_no_flow_2_20_0_0: flow_2_20_0_0 - 1000 edge_2_20_0_0 <= 0
 inactive_no_flow_3_1_0_0: flow_3_1_0_0 - 1000 edge_3_1_0_0 <= 0
 inactive_no_flow_3_2_0_0: flow_3_2_0_0 - 1000 edge_3_2_0_0 <= 0
 inactive_no_flow_3_4_0_0: flow_3_4_0_0 - 1000 edge_3_4_0_0 <= 0
 inactive_no_flow_3_5_0_0: flow_3_5_0_0 - 1000 edge_3_5_0_0 <= 0
 inactive_no_flow_3_6_0_0: flow_3_6_0_0 - 1000 edge_3_6_0_0 <= 0
 inactive_no_flow_3_7_0_0: flow_3_7_0_0 - 1000 edge_3_7_0_0 <= 0
 inactive_no_flow_3_9_0_0: flow_3_9_0_0 - 1000 edge_3_9_0_0 <= 0
 inactive_no_flow_3_10_0_0: flow_3_10_0_0 - 1000 edge_3_10_0_0 <= 0
 inactive_no_flow_3_11_0_0: flow_3_11_0_0 - 1000 edge_3_11_0_0 <= 0
 inactive_no_flow_3_12_0_0: flow_3_12_0_0 - 1000 edge_3_12_0_0 <= 0
 inactive_no_flow_3_13_0_0: flow_3_13_0_0 - 1000 edge_3_13_0_0 <= 0
 inactive_no_flow_3_14_0_0: flow_3_14_0_0 - 1000 edge_3_14_0_0 <= 0
 inactive_no_flow_3_16_0_0: flow_3_16_0_0 - 1000 edge_3_16_0_0 <= 0
 inactive_no_flow_3_19_0_0: flow_3_19_0_0 - 1000 edge_3_19_0_0 <= 0
 inactive_no_flow_3_20_0_0: flow_3_20_0_0 - 1000 edge_3_20_0_0 <= 0
 inactive_no_flow_4_1_0_0: flow_4_1_0_0 - 1000 edge_4_1_0_0 <= 0
 inactive_no_flow_4_2_0_0: flow_4_2_0_0 - 1000 edge_4_2_0_0 <= 0
 inactive_no_flow_4_3_0_0: flow_4_3_0_0 - 1000 edge_4_3_0_0 <= 0
 inactive_no_flow_4_5_0_0: flow_4_5_0_0 - 1000 edge_4_5_0_0 <= 0
 inactive_no_flow_4_20_0_0: flow_4_20_0_0 - 1000 edge_4_20_0_0 <= 0
 inactive_no_flow_5_1_0_0: flow_5_1_0_0 - 1000 edge_5_1_0_0 <= 0
 inactive_no_flow_5_2_0_0: flow_5_2_0_0 - 1000 edge_5_2_0_0 <= 0
 inactive_no_flow_5_3_0_0: flow_5_3_0_0 - 1000 edge_5_3_0_0 <= 0
 inactive_no_flow_5_4_0_0: flow_5_4_0_0 - 1000 edge_5_4_0_0 <= 0
 inactive_no_flow_5_6_0_0: flow_5_6_0_0 - 1000 edge_5_6_0_0 <= 0
 inactive_no_flow_5_7_0_0: flow_5_7_0_0 - 1000 edge_5_7_0_0 <= 0
 inactive_no_flow_5_9_0_0: flow_5_9_0_0 - 1000 edge_5_9_0_0 <= 0
 inactive_no_flow_5_11_0_0: flow_5_11_0_0 - 1000 edge_5_11_0_0 <= 0
 inactive_no_flow_5_12_0_0: flow_5_12_0_0 - 1000 edge_5_12_0_0 <= 0
 inactive_no_flow_5_13_0_0: flow_5_13_0_0 - 1000 edge_5_13_0_0 <= 0
 inactive_no_flow_5_14_0_0: flow_5_14_0_0 - 1000 edge_5_14_0_0 <= 0
 inactive_no_flow_5_15_0_0: flow_5_15_0_0 - 1000 edge_5_15_0_0 <= 0
 inactive_no_flow_5_16_0_0: flow_5_16_0_0 - 1000 edge_5_16_0_0 <= 0
 inactive_no_flow_5_20_0_0: flow_5_20_0_0 - 1000 edge_5_20_0_0 <= 0
 inactive_no_flow_6_3_0_0: flow_6_3_0_0 - 1000 edge_6_3_0_0 <= 0
 inactive_no_flow_6_5_0_0: flow_6_5_0_0 - 1000 edge_6_5_0_0 <= 0
 inactive_no_flow_6_7_0_0: flow_6_7_0_0 - 1000 edge_6_7_0_0 <= 0
 inactive_no_flow_7_5_0_0: flow_7_5_0_0 - 1000 edge_7_5_0_0 <= 0
 inactive_no_flow_7_6_0_0: flow_7_6_0_0 - 1000 edge_7_6_0_0 <= 0
 inactive_no_flow_7_9_0_0: flow_7_9_0_0 - 1000 edge_7_9_0_0 <= 0
 inactive_no_flow_7_11_0_0: flow_7_11_0_0 - 1000 edge_7_11_0_0 <= 0
 inactive_no_flow_8_1_0_0: flow_8_1_0_0 - 1000 edge_8_1_0_0 <= 0
 inactive_no_flow_8_9_0_0: flow_8_9_0_0 - 1000 edge_8_9_0_0 <= 0
 inactive_no_flow_8_11_0_0: flow_8_11_0_0 - 1000 edge_8_11_0_0 <= 0
 inactive_no_flow_8_12_0_0: flow_8_12_0_0 - 1000 edge_8_12_0_0 <= 0
 inactive_no_flow_8_13_0_0: flow_8_13_0_0 - 1000 edge_8_13_0_0 <= 0
 inactive_no_flow_8_14_0_0: flow_8_14_0_0 - 1000 edge_8_14_0_0 <= 0
 inactive_no_flow_8_15_0_0: flow_8_15_0_0 - 1000 edge_8_15_0_0 <= 0
 inactive_no_flow_8_19_0_0: flow_8_19_0_0 - 1000 edge_8_19_0_0 <= 0
 inactive_no_flow_8_20_0_0: flow_8_20_0_0 - 1000 edge_8_20_0_0 <= 0
 inactive_no_flow_9_1_0_0: flow_9_1_0_0 - 1000 edge_9_1_0_0 <= 0
 inactive_no_flow_9_2_0_0: flow_9_2_0_0 - 1000 edge_9_2_0_0 <= 0
 inactive_no_flow_9_3_0_0: flow_9_3_0_0 - 1000 edge_9_3_0_0 <= 0
 inactive_no_flow_9_5_0_0: flow_9_5_0_0 - 1000 edge_9_5_0_0 <= 0
 inactive_no_flow_9_6_0_0: flow_9_6_0_0 - 1000 edge_9_6_0_0 <= 0
 inactive_no_flow_9_7_0_0: flow_9_7_0_0 - 1000 edge_9_7_0_0 <= 0
 inactive_no_flow_9_8_0_0: flow_9_8_0_0 - 1000 edge_9_8_0_0 <= 0
 inactive_no_flow_9_10_0_0: flow_9_10_0_0 - 1000 edge_9_10_0_0 <= 0
 inactive_no_flow_9_11_0_0: flow_9_11_0_0 - 1000 edge_9_11_0_0 <= 0
 inactive_no_flow_9_12_0_0: flow_9_12_0_0 - 1000 edge_9_12_0_0 <= 0
 inactive_no_flow_9_13_0_0: flow_9_13_0_0 - 1000 edge_9_13_0_0 <= 0
 inactive_no_flow_9_14_0_0: flow_9_14_0_0 - 1000 edge_9_14_0_0 <= 0
 inactive_no_flow_9_15_0_0: flow_9_15_0_0 - 1000 edge_9_15_0_0 <= 0
 inactive_no_flow_9_16_0_0: flow_9_16_0_0 - 1000 edge_9_16_0_0 <= 0
 inactive_no_flow_9_19_0_0: flow_9_19_0_0 - 1000 edge_9_19_0_0 <= 0
 inactive_no_flow_9_20_0_0: flow_9_20_0_0 - 1000 edge_9_20_0_0 <= 0
 inactive_no_flow_10_7_0_0: flow_10_7_0_0 - 1000 edge_10_7_0_0 <= 0
 inactive_no_flow_10_9_0_0: flow_10_9_0_0 - 1000 edge_10_9_0_0 <= 0
 inactive_no_flow_11_1_0_0: flow_11_1_0_0 - 1000 edge_11_1_0_0 <= 0
 inactive_no_flow_11_2_0_0: flow_11_2_0_0 - 1000 edge_11_2_0_0 <= 0
 inactive_no_flow_11_3_0_0: flow_11_3_0_0 - 1000 edge_11_3_0_0 <= 0
 inactive_no_flow_11_5_0_0: flow_11_5_0_0 - 1000 edge_11_5_0_0 <= 0
 inactive_no_flow_11_6_0_0: flow_11_6_0_0 - 1000 edge_11_6_0_0 <= 0
 inactive_no_flow_11_7_0_0: flow_11_7_0_0 - 1000 edge_11_7_0_0 <= 0
 inactive_no_flow_11_8_0_0: flow_11_8_0_0 - 1000 edge_11_8_0_0 <= 0
 inactive_no_flow_11_9_0_0: flow_11_9_0_0 - 1000 edge_11_9_0_0 <= 0
 inactive_no_flow_11_10_0_0: flow_11_10_0_0 - 1000 edge_11_10_0_0 <= 0
 inactive_no_flow_11_12_0_0: flow_11_12_0_0 - 1000 edge_11_12_0_0 <= 0
 inactive_no_flow_11_13_0_0: flow_11_13_0_0 - 1000 edge_11_13_0_0 <= 0
 inactive_no_flow_11_14_0_0: flow_11_14_0_0 - 1000 edge_11_14_0_0 <= 0
 inactive_no_flow_11_15_0_0: flow_11_15_0_0 - 1000 edge_11_15_0_0 <= 0
 inactive_no_flow_11_16_0_0: flow_11_16_0_0 - 1000 edge_11_16_0_0 <= 0
 inactive_no_flow_11_19_0_0: flow_11_19_0_0 - 1000 edge_11_19_0_0 <= 0
 inactive_no_flow_11_20_0_0: flow_11_20_0_0 - 1000 edge_11_20_0_0 <= 0
 inactive_no_flow_12_8_0_0: flow_12_8_0_0 - 1000 edge_12_8_0_0 <= 0
 inactive_no_flow_12_9_0_0: flow_12_9_0_0 - 1000 edge_12_9_0_0 <= 0
 inactive_no_flow_12_11_0_0: flow_12_11_0_0 - 1000 edge_12_11_0_0 <= 0
 inactive_no_flow_12_13_0_0: flow_12_13_0_0 - 1000 edge_12_13_0_0 <= 0
 inactive_no_flow_12_14_0_0: flow_12_14_0_0 - 1000 edge_12_14_0_0 <= 0
 inactive_no_flow_12_15_0_0: flow_12_15_0_0 - 1000 edge_12_15_0_0 <= 0
 inactive_no_flow_12_16_0_0: flow_12_16_0_0 - 1000 edge_12_16_0_0 <= 0
 inactive_no_flow_12_19_0_0: flow_12_19_0_0 - 1000 edge_12_19_0_0 <= 0
 inactive_no_flow_12_20_0_0: flow_12_20_0_0 - 1000 edge_12_20_0_0 <= 0
 inactive_no_flow_13_1_0_0: flow_13_1_0_0 - 1000 edge_13_1_0_0 <= 0
 inactive_no_flow_13_2_0_0: flow_13_2_0_0 - 1000 edge_13_2_0_0 <= 0
 inactive_no_flow_13_3_0_0: flow_13_3_0_0 - 1000 edge_13_3_0_0 <= 0
 inactive_no_flow_13_5_0_0: flow_13_5_0_0 - 1000 edge_13_5_0_0 <= 0
 inactive_no_flow_13_6_0_0: flow_13_6_0_0 - 1000 edge_13_6_0_0 <= 0
 inactive_no_flow_13_7_0_0: flow_13_7_0_0 - 1000 edge_13_7_0_0 <= 0
 inactive_no_flow_13_8_0_0: flow_13_8_0_0 - 1000 edge_13_8_0_0 <= 0
 inactive_no_flow_13_9_0_0: flow_13_9_0_0 - 1000 edge_13_9_0_0 <= 0
 inactive_no_flow_13_10_0_0: flow_13_10_0_0 - 1000 edge_13_10_0_0 <= 0
 inactive_no_flow_13_11_0_0: flow_13_11_0_0 - 1000 edge_13_11_0_0 <= 0
 inactive_no_flow_13_12_0_0: flow_13_12_0_0 - 1000 edge_13_12_0_0 <= 0
 inactive_no_flow_13_14_0_0: flow_13_14_0_0 - 1000 edge_13_14_0_0 <= 0
 inactive_no_flow_13_15_0_0: flow_13_15_0_0 - 1000 edge_13_15_0_0 <= 0
 inactive_no_flow_13_16_0_0: flow_13_16_0_0 - 1000 edge_13_16_0_0 <= 0
 inactive_no_flow_13_18_0_0: flow_13_18_0_0 - 1000 edge_13_18_0_0 <= 0
 inactive_no_flow_13_19_0_0: flow_13_19_0_0 - 1000 edge_13_19_0_0 <= 0
 inactive_no_flow_13_20_0_0: flow_13_20_0_0 - 1000 edge_13_20_0_0 <= 0
 inactive_no_flow_14_1_0_0: flow_14_1_0_0 - 1000 edge_14_1_0_0 <= 0
 inactive_no_flow_14_8_0_0: flow_14_8_0_0 - 1000 edge_14_8_0_0 <= 0
 inactive_no_flow_14_9_0_0: flow_14_9_0_0 - 1000 edge_14_9_0_0 <= 0
 inactive_no_flow_14_11_0_0: flow_14_11_0_0 - 1000 edge_14_11_0_0 <= 0
 inactive_no_flow_14_12_0_0: flow_14_12_0_0 - 1000 edge_14_12_0_0 <= 0
 inactive_no_flow_14_13_0_0: flow_14_13_0_0 - 1000 edge_14_13_0_0 <= 0
 inactive_no_flow_14_15_0_0: flow_14_15_0_0 - 1000 edge_14_15_0_0 <= 0
 inactive_no_flow_14_16_0_0: flow_14_16_0_0 - 1000 edge_14_16_0_0 <= 0
 inactive_no_flow_14_19_0_0: flow_14_19_0_0 - 1000 edge_14_19_0_0 <= 0
 inactive_no_flow_14_20_0_0: flow_14_20_0_0 - 1000 edge_14_20_0_0 <= 0
 inactive_no_flow_15_1_0_0: flow_15_1_0_0 - 1000 edge_15_1_0_0 <= 0
 inactive_no_flow_15_8_0_0: flow_15_8_0_0 - 1000 edge_15_8_0_0 <= 0
 inactive_no_flow_15_9_0_0: flow_15_9_0_0 - 1000 edge_15_9_0_0 <= 0
 inactive_no_flow_15_11_0_0: flow_15_11_0_0 - 1000 edge_15_11_0_0 <= 0
 inactive_no_flow_15_12_0_0: flow_15_12_0_0 - 1000 edge_15_12_0_0 <= 0
 inactive_no_flow_15_13_0_0: flow_15_13_0_0 - 1000 edge_15_13_0_0 <= 0
 inactive_no_flow_15_14_0_0: flow_15_14_0_0 - 1000 edge_15_14_0_0 <= 0
 inactive_no_flow_15_19_0_0: flow_15_19_0_0 - 1000 edge_15_19_0_0 <= 0
 inactive_no_flow_15_20_0_0: flow_15_20_0_0 - 1000 edge_15_20_0_0 <= 0
 inactive_no_flow_16_2_0_0: flow_16_2_0_0 - 1000 edge_16_2_0_0 <= 0
 inactive_no_flow_16_3_0_0: flow_16_3_0_0 - 1000 edge_16_3_0_0 <= 0
 inactive_no_flow_16_5_0_0: flow_16_5_0_0 - 1000 edge_16_5_0_0 <= 0
 inactive_no_flow_16_6_0_0: flow_16_6_0_0 - 1000 edge_16_6_0_0 <= 0
 inactive_no_flow_16_7_0_0: flow_16_7_0_0 - 1000 edge_16_7_0_0 <= 0
 inactive_no_flow_16_9_0_0: flow_16_9_0_0 - 1000 edge_16_9_0_0 <= 0
 inactive_no_flow_16_11_0_0: flow_16_11_0_0 - 1000 edge_16_11_0_0 <= 0
 inactive_no_flow_16_12_0_0: flow_16_12_0_0 - 1000 edge_16_12_0_0 <= 0
 inactive_no_flow_16_13_0_0: flow_16_13_0_0 - 1000 edge_16_13_0_0 <= 0
 inactive_no_flow_16_14_0_0: flow_16_14_0_0 - 1000 edge_16_14_0_0 <= 0
 inactive_no_flow_16_15_0_0: flow_16_15_0_0 - 1000 edge_16_15_0_0 <= 0
 inactive_no_flow_16_18_0_0: flow_16_18_0_0 - 1000 edge_16_18_0_0 <= 0
 inactive_no_flow_16_19_0_0: flow_16_19_0_0 - 1000 edge_16_19_0_0 <= 0
 inactive_no_flow_18_14_0_0: flow_18_14_0_0 - 1000 edge_18_14_0_0 <= 0
 inactive_no_flow_18_15_0_0: flow_18_15_0_0 - 1000 edge_18_15_0_0 <= 0
 inactive_no_flow_19_1_0_0: flow_19_1_0_0 - 1000 edge_19_1_0_0 <= 0
 inactive_no_flow_19_2_0_0: flow_19_2_0_0 - 1000 edge_19_2_0_0 <= 0
 inactive_no_flow_19_3_0_0: flow_19_3_0_0 - 1000 edge_19_3_0_0 <= 0
 inactive_no_flow_19_6_0_0: flow_19_6_0_0 - 1000 edge_19_6_0_0 <= 0
 inactive_no_flow_19_8_0_0: flow_19_8_0_0 - 1000 edge_19_8_0_0 <= 0
 inactive_no_flow_19_9_0_0: flow_19_9_0_0 - 1000 edge_19_9_0_0 <= 0
 inactive_no_flow_19_11_0_0: flow_19_11_0_0 - 1000 edge_19_11_0_0 <= 0
 inactive_no_flow_19_12_0_0: flow_19_12_0_0 - 1000 edge_19_12_0_0 <= 0
 inactive_no_flow_19_13_0_0: flow_19_13_0_0 - 1000 edge_19_13_0_0 <= 0
 inactive_no_flow_19_14_0_0: flow_19_14_0_0 - 1000 edge_19_14_0_0 <= 0
 inactive_no_flow_19_15_0_0: flow_19_15_0_0 - 1000 edge_19_15_0_0 <= 0
 inactive_no_flow_19_16_0_0: flow_19_16_0_0 - 1000 edge_19_16_0_0 <= 0
 inactive_no_flow_19_18_0_0: flow_19_18_0_0 - 1000 edge_19_18_0_0 <= 0
 inactive_no_flow_19_20_0_0: flow_19_20_0_0 - 1000 edge_19_20_0_0 <= 0
 inactive_no_flow_20_1_0_0: flow_20_1_0_0 - 1000 edge_20_1_0_0 <= 0
 inactive_no_flow_20_2_0_0: flow_20_2_0_0 - 1000 edge_20_2_0_0 <= 0
 inactive_no_flow_20_4_0_0: flow_20_4_0_0 - 1000 edge_20_4_0_0 <= 0
 inactive_no_flow_20_5_0_0: flow_20_5_0_0 - 1000 edge_20_5_0_0 <= 0
 inactive_no_flow_20_19_0_0: flow_20_19_0_0 - 1000 edge_20_19_0_0 <= 0
Bounds
Binaries
 edge_0_1_0_0 edge_0_2_0_0 edge_0_3_0_0 edge_0_4_0_0 edge_0_5_0_0
 edge_0_8_0_0 edge_0_9_0_0 edge_0_11_0_0 edge_0_12_0_0 edge_0_13_0_0
 edge_0_15_0_0 edge_0_16_0_0 edge_0_19_0_0 edge_0_20_0_0 edge_1_2_0_0
 edge_1_3_0_0 edge_1_4_0_0 edge_1_5_0_0 edge_1_8_0_0 edge_1_9_0_0
 edge_1_11_0_0 edge_1_14_0_0 edge_1_20_0_0 edge_2_1_0_0 edge_2_3_0_0
 edge_2_4_0_0 edge_2_5_0_0 edge_2_6_0_0 edge_2_7_0_0 edge_2_9_0_0
 edge_2_11_0_0 edge_2_16_0_0 edge_2_20_0_0 edge_3_1_0_0 edge_3_2_0_0
 edge_3_4_0_0 edge_3_5_0_0 edge_3_6_0_0 edge_3_7_0_0 edge_3_9_0_0
 edge_3_10_0_0 edge_3_11_0_0 edge_3_12_0_0 edge_3_13_0_0 edge_3_14_0_0
 edge_3_16_0_0 edge_3_19_0_0 edge_3_20_0_0 edge_4_1_0_0 edge_4_2_0_0
 edge_4_3_0_0 edge_4_5_0_0 edge_4_20_0_0 edge_5_1_0_0 edge_5_2_0_0
 edge_5_3_0_0 edge_5_4_0_0 edge_5_6_0_0 edge_5_7_0_0 edge_5_9_0_0
 edge_5_11_0_0 edge_5_12_0_0 edge_5_13_0_0 edge_5_14_0_0 edge_5_15_0_0
 edge_5_16_0_0 edge_5_20_0_0 edge_6_3_0_0 edge_6_5_0_0 edge_6_7_0_0
 edge_7_5_0_0 edge_7_6_0_0 edge_7_9_0_0 edge_7_11_0_0 edge_8_1_0_0
 edge_8_9_0_0 edge_8_11_0_0 edge_8_12_0_0 edge_8_13_0_0 edge_8_14_0_0
 edge_8_15_0_0 edge_8_19_0_0 edge_8_20_0_0 edge_9_1_0_0 edge_9_2_0_0
 edge_9_3_0_0 edge_9_5_0_0 edge_9_6_0_0 edge_9_7_0_0 edge_9_8_0_0
 edge_9_10_0_0 edge_9_11_0_0 edge_9_12_0_0 edge_9_13_0_0 edge_9_14_0_0
 edge_9_15_0_0 edge_9_16_0_0 edge_9_19_0_0 edge_9_20_0_0 edge_10_7_0_0
 edge_10_9_0_0 edge_11_1_0_0 edge_11_2_0_0 edge_11_3_0_0 edge_11_5_0_0
 edge_11_6_0_0 edge_11_7_0_0 edge_11_8_0_0 edge_11_9_0_0 edge_11_10_0_0
 edge_11_12_0_0 edge_11_13_0_0 edge_11_14_0_0 edge_11_15_0_0 edge_11_16_0_0
 edge_11_19_0_0 edge_11_20_0_0 edge_12_8_0_0 edge_12_9_0_0 edge_12_11_0_0
 edge_12_13_0_0 edge_12_14_0_0 edge_12_15_0_0 edge_12_16_0_0 edge_12_19_0_0
 edge_12_20_0_0 edge_13_1_0_0 edge_13_2_0_0 edge_13_3_0_0 edge_13_5_0_0
 edge_13_6_0_0 edge_13_7_0_0 edge_13_8_0_0 edge_13_9_0_0 edge_13_10_0_0
 edge_13_11_0_0 edge_13_12_0_0 edge_13_14_0_0 edge_13_15_0_0 edge_13_16_0_0
 edge_13_18_0_0 edge_13_19_0_0 edge_13_20_0_0 edge_14_1_0_0 edge_14_8_0_0
 edge_14_9_0_0 edge_14_11_0_0 edge_14_12_0_0 edge_14_13_0_0 edge_14_15_0_0
 edge_14_16_0_0 edge_14_19_0_0 edge_14_20_0_0 edge_15_1_0_0 edge_15_8_0_0
 edge_15_9_0_0 edge_15_11_0_0 edge_15_12_0_0 edge_15_13_0_0 edge_15_14_0_0
 edge_15_19_0_0 edge_15_20_0_0 edge_16_2_0_0 edge_16_3_0_0 edge_16_5_0_0
 edge_16_6_0_0 edge_16_7_0_0 edge_16_9_0_0 edge_16_11_0_0 edge_16_12_0_0
 edge_16_13_0_0 edge_16_14_0_0 edge_16_15_0_0 edge_16_18_0_0 edge_16_19_0_0
 edge_18_14_0_0 edge_18_15_0_0 edge_19_1_0_0 edge_19_2_0_0 edge_19_3_0_0
 edge_19_6_0_0 edge_19_8_0_0 edge_19_9_0_0 edge_19_11_0_0 edge_19_12_0_0
 edge_19_13_0_0 edge_19_14_0_0 edge_19_15_0_0 edge_19_16_0_0 edge_19_18_0_0
 edge_19_20_0_0 edge_20_1_0_0 edge_20_2_0_0 edge_20_4_0_0 edge_20_5_0_0
 edge_20_19_0_0
End
